c Output_time 26.03.2020 18:13:18_+0100 1585242798588583356
c ** Program information **
c program_name                          "QBRG_debug"
c version                               "0.3.20"
c date                                  "25.3.2020"
c gid_id                                "673970833836058123f633335630c185360d632e"
c author                                "Oliver Kullmann"
c url                                   "https://github.com/OKullmann/oklibrary/blob/master/Satisfiability/Transformers/Generators/Random/QBRG.cpp"
c ** Machine information **
c machine_name                          "chyna-Lenovo-G50-70"
c bogomips                              3791.08
c ** Compilation information **
c compiler_version                      "g++ 7.5.0"
c compilation_date                      "Mar_26_2020 11:16:30"
c compilation_options                   "--std=c++17 -pedantic -fmax-errors=5 -Wall -Wextra -g -D_GLIBCXX_DEBUG"
c NDEBUG                                0
c OPTIMIZE                              0
c ** Parameters **
c command-line                          "./QBRG_debug" "e40 a40 40" "393*1,1|2-2,1|3-3,1" "" "1,t" ""
c output                                "QuBlRaGe_120_393_1585242798588412908.qdimacs"
c options                               "filtered,renamed"
c num_quantifier_blocks                 3
c  quantifier_blocks                    1:e1-40 2:a41-80 3:e81-120
c num_clause-blocks                     1
c  clause-blocks                        393 * {1-40,1,1/2} | {41-80,1,1/2} | {81-120,1,1/2}
c num_e-seeds                           30+2=32
c  e-seeds                              1 0 1 0 4 120 2 40 1 40 0 40 1 393 3 1 1 1 1 2 2 2 1 1 2 3 3 1 1 2 1 1585242798588412237
p cnf 120 393
e 1 2 3 4 5 6 7 8 9 10 11 12 13 14 15 16 17 18 19 20 21 22 23 24 25 26 27 28 29 30 31 32 33 34 35 36 37 38 39 40 0
a 41 42 43 44 45 46 47 48 49 50 51 52 53 54 55 56 57 58 59 60 61 62 63 64 65 66 67 68 69 70 71 72 73 74 75 76 77 78 79 80 0
e 81 82 83 84 85 86 87 88 89 90 91 92 93 94 95 96 97 98 99 100 101 102 103 104 105 106 107 108 109 110 111 112 113 114 115 116 117 118 119 120 0
8 -62 -81 0
32 70 -81 0
8 -43 81 0
40 48 81 0
20 58 81 0
-6 68 81 0
23 79 81 0
9 44 -82 0
-14 54 -82 0
-22 -59 -82 0
30 59 -82 0
-23 71 -82 0
17 77 -82 0
30 -41 82 0
5 -57 82 0
11 57 82 0
13 63 82 0
-12 70 82 0
25 -51 -83 0
37 -55 -83 0
2 -66 -83 0
-24 -69 -83 0
-33 75 -83 0
-2 -77 -83 0
32 77 -83 0
16 -59 83 0
-2 59 83 0
9 -61 83 0
31 -70 83 0
35 -72 83 0
25 -79 83 0
34 -80 83 0
11 51 -84 0
-8 53 -84 0
12 -54 -84 0
-17 54 -84 0
-33 -64 -84 0
-7 -67 -84 0
38 -47 84 0
19 -51 84 0
30 -79 84 0
-33 79 84 0
-35 79 84 0
-7 -44 -85 0
13 55 -85 0
-11 -74 -85 0
-16 -74 -85 0
27 -78 -85 0
-39 52 85 0
-39 54 85 0
15 -64 85 0
3 -70 85 0
-5 42 -86 0
37 51 -86 0
-34 -56 -86 0
37 -58 -86 0
-40 -61 -86 0
25 66 -86 0
15 -42 86 0
-33 -52 86 0
15 56 86 0
17 -58 86 0
-5 -60 86 0
-9 71 86 0
36 -72 86 0
40 -43 -87 0
19 43 -87 0
-22 48 -87 0
6 -52 -87 0
13 -60 -87 0
-2 -62 -87 0
26 50 87 0
20 -61 87 0
38 64 87 0
-21 -65 87 0
-40 69 87 0
-5 -80 87 0
-36 41 -88 0
-35 -79 -88 0
-7 42 88 0
40 -51 88 0
5 -61 88 0
-1 -72 88 0
-8 75 88 0
27 -45 -89 0
11 54 -89 0
24 56 -89 0
-34 61 -89 0
16 -65 -89 0
3 70 -89 0
9 -73 -89 0
3 -43 89 0
1 -53 89 0
-10 71 89 0
-31 51 -90 0
31 53 -90 0
8 56 -90 0
30 66 -90 0
-25 -68 -90 0
17 70 -90 0
34 50 90 0
-39 -62 90 0
-9 -68 90 0
13 47 -91 0
25 48 -91 0
13 49 -91 0
24 54 -91 0
-18 -62 -91 0
-3 -76 -91 0
-36 63 91 0
35 -70 91 0
14 70 91 0
-25 78 91 0
-18 43 -92 0
27 -45 -92 0
22 -49 -92 0
14 56 -92 0
-3 -59 -92 0
-27 -59 -92 0
23 68 -92 0
22 69 -92 0
15 53 92 0
-8 -58 92 0
33 47 -93 0
-16 -55 -93 0
30 67 -93 0
-25 -74 -93 0
-37 77 -93 0
-28 -44 93 0
-3 50 93 0
17 50 93 0
-6 -51 93 0
40 -55 93 0
-1 58 93 0
-40 62 93 0
-8 46 -94 0
26 51 -94 0
-31 -58 -94 0
29 -61 -94 0
36 -68 -94 0
5 69 -94 0
13 43 94 0
-34 68 94 0
-38 -49 -95 0
-8 63 -95 0
-6 65 -95 0
-18 -78 -95 0
-3 65 95 0
7 78 95 0
13 -43 -96 0
-32 45 -96 0
13 -50 -96 0
-19 -51 -96 0
37 66 -96 0
13 72 -96 0
6 -77 -96 0
-38 77 -96 0
6 65 96 0
20 76 96 0
-12 -56 -97 0
39 57 -97 0
14 -61 -97 0
-28 -69 -97 0
-15 77 -97 0
2 78 -97 0
-2 50 97 0
36 -51 97 0
-29 -52 97 0
8 -55 97 0
-13 56 97 0
-6 66 97 0
26 -72 97 0
-21 -43 -98 0
-2 -57 -98 0
-31 59 -98 0
27 62 -98 0
-32 -79 -98 0
-1 -42 98 0
6 78 98 0
-18 -51 -99 0
4 65 -99 0
22 -46 99 0
11 47 99 0
30 -68 99 0
5 -72 99 0
-31 -72 99 0
21 -47 -100 0
15 -54 -100 0
-23 71 -100 0
-13 -72 -100 0
39 -61 100 0
-31 -65 100 0
-8 65 100 0
-12 -54 -101 0
-27 55 -101 0
34 80 -101 0
-38 44 101 0
2 50 101 0
-3 -52 101 0
-40 77 101 0
-3 79 101 0
1 51 -102 0
30 69 -102 0
18 70 -102 0
8 75 -102 0
-23 43 102 0
-28 43 102 0
-16 -60 102 0
-25 -65 102 0
30 65 102 0
15 -75 102 0
26 42 -103 0
-37 -43 -103 0
-6 -50 -103 0
-19 -62 -103 0
20 -76 -103 0
-24 79 -103 0
28 -51 103 0
10 -64 103 0
-38 76 103 0
8 77 103 0
17 77 103 0
-26 80 103 0
3 -42 -104 0
3 -45 -104 0
-22 -50 -104 0
12 -52 104 0
5 54 104 0
23 61 104 0
6 73 104 0
37 78 104 0
18 -56 -105 0
33 56 -105 0
26 -63 -105 0
13 75 -105 0
23 78 -105 0
6 45 105 0
19 47 -106 0
23 49 -106 0
-19 -55 -106 0
-22 -59 -106 0
-31 -62 -106 0
-40 78 -106 0
7 -57 106 0
-23 63 106 0
19 67 106 0
-19 43 -107 0
-27 55 -107 0
-9 -59 -107 0
-3 65 -107 0
-26 -69 -107 0
-23 80 -107 0
11 58 107 0
29 -64 107 0
14 65 107 0
-1 66 107 0
-36 -73 107 0
19 80 107 0
32 47 -108 0
-6 -65 -108 0
-6 -70 -108 0
35 -43 108 0
-2 46 108 0
20 -67 108 0
39 -53 -109 0
8 55 -109 0
-15 56 -109 0
-31 63 -109 0
-38 73 -109 0
10 -43 109 0
34 -50 -110 0
37 -51 -110 0
2 -53 -110 0
20 -58 -110 0
-27 65 -110 0
-36 -71 -110 0
1 72 -110 0
-24 -54 110 0
-6 75 110 0
-29 -49 -111 0
-12 -53 -111 0
26 -64 -111 0
38 -65 -111 0
-27 -72 -111 0
13 75 -111 0
6 60 111 0
5 68 111 0
-6 68 111 0
40 69 111 0
-31 -42 -112 0
5 45 -112 0
3 -70 -112 0
-9 41 112 0
29 46 112 0
-1 -54 112 0
26 54 112 0
2 65 112 0
-13 -69 112 0
34 -51 -113 0
-10 58 -113 0
-23 59 -113 0
-15 66 -113 0
4 76 -113 0
-37 76 -113 0
-11 44 113 0
31 -53 113 0
-17 62 113 0
35 68 113 0
23 -45 -114 0
-23 63 -114 0
-2 68 -114 0
-20 70 -114 0
-36 72 -114 0
-12 -42 114 0
17 -57 114 0
3 63 114 0
-28 -73 114 0
26 -78 114 0
36 -79 114 0
-9 41 -115 0
15 55 -115 0
-18 -57 -115 0
-28 -65 -115 0
9 65 -115 0
-25 76 -115 0
-13 79 -115 0
19 47 115 0
-30 -53 115 0
39 -62 115 0
-5 -64 115 0
-12 69 115 0
35 -70 115 0
34 71 115 0
-36 -44 -116 0
27 -47 -116 0
28 57 -116 0
26 -62 -116 0
-12 -78 -116 0
29 -78 -116 0
-1 48 116 0
-22 48 116 0
-17 -58 116 0
20 -58 116 0
-1 73 116 0
-20 76 116 0
21 -45 -117 0
15 51 -117 0
28 -52 -117 0
-31 -72 -117 0
-3 79 -117 0
-20 43 117 0
-12 46 117 0
-22 46 117 0
20 56 117 0
-8 57 117 0
-37 57 117 0
8 -62 117 0
-19 -66 117 0
32 75 117 0
7 -79 117 0
-34 -42 -118 0
-27 -53 -118 0
5 -54 -118 0
-1 66 -118 0
-35 -73 -118 0
-22 -55 118 0
8 -60 118 0
5 -74 118 0
-30 -77 118 0
-29 54 -119 0
-11 65 -119 0
5 -47 119 0
-33 50 119 0
21 51 119 0
32 52 119 0
-10 56 119 0
30 57 119 0
32 57 119 0
31 63 119 0
-3 64 119 0
12 -67 119 0
11 -68 119 0
-10 44 -120 0
-3 -51 -120 0
7 53 -120 0
-15 -61 -120 0
-38 -69 -120 0
-27 76 -120 0
-39 -80 -120 0
5 -57 120 0
31 -58 120 0
3 58 120 0
32 79 120 0
